
  32    4
  10   10   10   10

   0   0   0   0   0   2 2 4 
   6   2   1   1   0   1 3 
   3   3   3   0   1   1 5 
   7   0   4   5   4   1 5 
   9   0   5   3   7   1 6 
   2   6   1   0   2   1 7 
   4   0   7   1   5   1 8 
   1   0   2   4   3   1 9 
   3   7   4   3   0   1 10 
   1   2   8   0   3   1 11 
  10   6   0   4   1   1 12 
  10   3   0   4   2   1 13 
   9   2   0   6   5   2 18 14 
   7   5   0   6   2   1 15 
  10   2   1   0   6   1 16 
   4   5   2   0   2   1 17 
   5   0   4   4   2   1 19 
   1  10   0   4   6   1 19 
  10   3   0   4   5   1 20 
   9   0   6   5   2   2 25 21 
   7   1   5   0   2   1 22 
   9   4   6   0   2   1 23 
  10   4   3   0   5   1 24 
   2   0   6   7   7   1 26 
  10   0   2   2   6   1 26 
   8   3   0   5   6   1 27 
   1   0   5   8   3   1 28 
  10   4   3   0   7   1 29 
   2   5   0   2   5   1 30 
   7   3   5   0   6   1 31 
   1   0   5   2   5   1 32
   0   0   0   0   0   0 
